c CNF file generated from BLIF2CNF script.
c Original BLIF file was blif/rot.blif
p cnf 914 2844
1 -3 0
3 -1  0
-3 2 0
-2 3  0
4 -6 0
6 -4  0
-6 5 0
-5 6  0
7 -9 0
9 -7  0
-9 8 0
-8 9  0
10 -12 0
12 -10  0
-12 11 0
-11 12  0
13 -15 0
15 -13  0
-15 14 0
-14 15  0
16 -18 0
18 -16  0
-18 17 0
-17 18  0
-19 -21 0
21 19  0
-21 20 0
-20 21  0
22 -24 0
24 -22  0
-24 23 0
-23 24  0
25 -27 0
27 -25  0
-27 26 0
-26 27  0
28 -30 0
30 -28  0
-30 29 0
-29 30  0
31 -33 0
33 -31  0
-33 32 0
-32 33  0
34 -36 0
36 -34  0
-36 35 0
-35 36  0
37 -39 0
39 -37  0
-39 38 0
-38 39  0
40 -42 0
42 -40  0
-42 41 0
-41 42  0
43 -45 0
45 -43  0
-45 44 0
-44 45  0
46 -48 0
48 -46  0
-48 47 0
-47 48  0
49 -51 0
51 -49  0
-51 50 0
-50 51  0
52 -54 0
54 -52  0
-54 53 0
-53 54  0
55 -57 0
57 -55  0
-57 56 0
-56 57  0
58 -60 0
60 -58  0
-60 59 0
-59 60  0
61 -63 0
63 -61  0
-63 62 0
-62 63  0
64 -66 0
66 -64  0
-66 65 0
-65 66  0
67 -69 0
69 -67  0
-69 68 0
-68 69  0
70 -72 0
72 -70  0
-72 71 0
-71 72  0
73 -75 0
75 -73  0
-75 74 0
-74 75  0
76 -78 0
78 -76  0
-78 77 0
-77 78  0
79 -81 0
81 -79  0
-81 80 0
-80 81  0
82 -84 0
84 -82  0
-84 83 0
-83 84  0
85 -87 0
87 -85  0
-87 86 0
-86 87  0
88 -90 0
90 -88  0
-90 89 0
-89 90  0
91 -93 0
93 -91  0
-93 92 0
-92 93  0
94 -96 0
96 -94  0
-96 95 0
-95 96  0
97 -99 0
99 -97  0
-99 98 0
-98 99  0
100 -102 0
102 -100  0
-102 101 0
-101 102  0
103 -105 0
105 -103  0
-105 104 0
-104 105  0
106 -108 0
108 -106  0
-108 107 0
-107 108  0
109 -111 0
111 -109  0
-111 110 0
-110 111  0
112 -114 0
114 -112  0
-114 113 0
-113 114  0
115 -117 0
117 -115  0
-117 116 0
-116 117  0
118 -120 0
120 -118  0
-120 119 0
-119 120  0
121 -123 0
123 -121  0
-123 122 0
-122 123  0
124 -126 0
126 -124  0
-126 125 0
-125 126  0
127 -129 0
129 -127  0
-129 128 0
-128 129  0
130 -132 0
132 -130  0
-132 131 0
-131 132  0
133 -135 0
135 -133  0
-135 134 0
-134 135  0
136 -138 0
138 -136  0
-138 137 0
-137 138  0
139 -141 0
141 -139  0
-141 140 0
-140 141  0
142 -144 0
144 -142  0
-144 143 0
-143 144  0
145 -147 0
147 -145  0
-147 146 0
-146 147  0
148 -150 0
150 -148  0
-150 149 0
-149 150  0
-151 -153 0
153 151  0
-153 152 0
-152 153  0
154 -156 0
156 -154  0
-156 155 0
-155 156  0
157 -159 0
159 -157  0
-159 158 0
-158 159  0
160 -162 0
162 -160  0
-162 161 0
-161 162  0
163 -165 0
165 -163  0
-165 164 0
-164 165  0
166 -168 0
168 -166  0
-168 167 0
-167 168  0
169 -171 0
171 -169  0
-171 170 0
-170 171  0
172 -174 0
174 -172  0
-174 173 0
-173 174  0
175 -177 0
177 -175  0
-177 176 0
-176 177  0
178 -180 0
180 -178  0
-180 179 0
-179 180  0
181 -183 0
183 -181  0
-183 182 0
-182 183  0
184 -186 0
186 -184  0
-186 185 0
-185 186  0
187 -189 0
189 -187  0
-189 188 0
-188 189  0
190 -192 0
192 -190  0
-192 191 0
-191 192  0
193 -195 0
195 -193  0
-195 194 0
-194 195  0
196 -198 0
198 -196  0
-198 197 0
-197 198  0
199 -201 0
201 -199  0
-201 200 0
-200 201  0
202 -204 0
204 -202  0
-204 203 0
-203 204  0
205 -207 0
207 -205  0
-207 206 0
-206 207  0
208 -210 0
210 -208  0
-210 209 0
-209 210  0
211 -213 0
213 -211  0
-213 212 0
-212 213  0
214 -216 0
216 -214  0
-216 215 0
-215 216  0
217 -219 0
219 -217  0
-219 218 0
-218 219  0
208 -221 0
221 -208  0
-221 220 0
-220 221  0
222 -224 0
224 -222  0
-224 223 0
-223 224  0
225 -227 0
227 -225  0
-227 226 0
-226 227  0
228 -230 0
230 -228  0
-230 229 0
-229 230  0
231 -233 0
233 -231  0
-233 232 0
-232 233  0
234 -236 0
236 -234  0
-236 235 0
-235 236  0
237 -239 0
239 -237  0
-239 238 0
-238 239  0
240 -242 0
242 -240  0
-242 241 0
-241 242  0
243 -245 0
245 -243  0
-245 244 0
-244 245  0
246 -248 0
248 -246  0
-248 247 0
-247 248  0
249 -251 0
251 -249  0
-251 250 0
-250 251  0
252 -254 0
254 -252  0
-254 253 0
-253 254  0
255 -257 0
257 -255  0
-257 256 0
-256 257  0
258 -260 0
260 -258  0
-260 259 0
-259 260  0
261 -263 0
263 -261  0
-263 262 0
-262 263  0
264 -266 0
266 -264  0
-266 265 0
-265 266  0
267 -269 0
269 -267  0
-269 268 0
-268 269  0
270 -272 0
272 -270  0
-272 271 0
-271 272  0
273 -275 0
275 -273  0
-275 274 0
-274 275  0
276 -278 0
278 -276  0
-278 277 0
-277 278  0
279 -281 0
281 -279  0
-281 280 0
-280 281  0
282 -284 0
284 -282  0
-284 283 0
-283 284  0
285 -287 0
287 -285  0
-287 286 0
-286 287  0
288 -290 0
290 -288  0
-290 289 0
-289 290  0
291 -293 0
293 -291  0
-293 292 0
-292 293  0
294 -296 0
296 -294  0
-296 295 0
-295 296  0
297 -299 0
299 -297  0
-299 298 0
-298 299  0
300 -302 0
302 -300  0
-302 301 0
-301 302  0
303 -305 0
305 -303  0
-305 304 0
-304 305  0
306 -308 0
308 -306  0
-308 307 0
-307 308  0
309 -311 0
311 -309  0
-311 310 0
-310 311  0
214 -313 0
313 -214  0
-313 312 0
-312 313  0
314 -316 0
316 -314  0
-316 315 0
-315 316  0
317 -319 0
319 -317  0
-319 318 0
-318 319  0
320 -324 0
-322 -324 0
324 -320 322  0
-324 1 0
320 -325 0
323 -325 0
325 -320 -323  0
-325 1 0
321 -326 0
322 -326 0
-323 -326 0
326 -321 -322 323  0
-326 1 0
-1 324 325 326  0
328 -330 0
329 -330 0
330 -328 -329  0
-330 4 0
327 -331 0
-329 -331 0
331 -327 329  0
-331 4 0
-4 330 331  0
332 -333 0
333 -332  0
-333 7 0
306 -334 0
334 -306  0
-334 7 0
-7 333 334  0
306 -341 0
341 -306  0
-341 10 0
-335 -342 0
336 -342 0
339 -342 0
340 -342 0
342 335 -336 -339 -340  0
-342 10 0
-337 -343 0
338 -343 0
339 -343 0
-340 -343 0
343 337 -338 -339 340  0
-343 10 0
-10 341 342 343  0
344 -345 0
306 -345 0
345 -344 -306  0
-345 13 0
336 -346 0
339 -346 0
340 -346 0
346 -336 -339 -340  0
-346 13 0
338 -347 0
339 -347 0
-340 -347 0
347 -338 -339 340  0
-347 13 0
-13 345 346 347  0
353 -356 0
356 -353  0
-356 25 0
-348 -357 0
354 -357 0
357 348 -354  0
-357 25 0
-352 -358 0
355 -358 0
358 352 -355  0
-358 25 0
349 -359 0
350 -359 0
351 -359 0
354 -359 0
359 -349 -350 -351 -354  0
-359 25 0
-25 356 357 358 359  0
352 -360 0
355 -360 0
360 -352 -355  0
-360 28 0
-28 360  0
-361 -370 0
362 -370 0
364 -370 0
366 -370 0
-367 -370 0
370 361 -362 -364 -366 367  0
-370 31 0
-361 -371 0
-363 -371 0
364 -371 0
366 -371 0
-367 -371 0
371 361 363 -364 -366 367  0
-371 31 0
-361 -372 0
362 -372 0
365 -372 0
366 -372 0
-367 -372 0
372 361 -362 -365 -366 367  0
-372 31 0
-361 -373 0
-363 -373 0
365 -373 0
366 -373 0
-367 -373 0
373 361 363 -365 -366 367  0
-373 31 0
-361 -374 0
362 -374 0
364 -374 0
366 -374 0
-368 -374 0
374 361 -362 -364 -366 368  0
-374 31 0
-361 -375 0
-363 -375 0
364 -375 0
366 -375 0
-368 -375 0
375 361 363 -364 -366 368  0
-375 31 0
-361 -376 0
362 -376 0
365 -376 0
366 -376 0
-368 -376 0
376 361 -362 -365 -366 368  0
-376 31 0
-361 -377 0
-363 -377 0
365 -377 0
366 -377 0
-368 -377 0
377 361 363 -365 -366 368  0
-377 31 0
-361 -378 0
362 -378 0
364 -378 0
366 -378 0
-369 -378 0
378 361 -362 -364 -366 369  0
-378 31 0
-361 -379 0
-363 -379 0
364 -379 0
366 -379 0
-369 -379 0
379 361 363 -364 -366 369  0
-379 31 0
-361 -380 0
362 -380 0
365 -380 0
366 -380 0
-369 -380 0
380 361 -362 -365 -366 369  0
-380 31 0
-361 -381 0
-363 -381 0
365 -381 0
366 -381 0
-369 -381 0
381 361 363 -365 -366 369  0
-381 31 0
-361 -382 0
362 -382 0
364 -382 0
-367 -382 0
-369 -382 0
382 361 -362 -364 367 369  0
-382 31 0
-361 -383 0
-363 -383 0
364 -383 0
-367 -383 0
-369 -383 0
383 361 363 -364 367 369  0
-383 31 0
-361 -384 0
362 -384 0
365 -384 0
-367 -384 0
-369 -384 0
384 361 -362 -365 367 369  0
-384 31 0
-361 -385 0
-363 -385 0
365 -385 0
-367 -385 0
-369 -385 0
385 361 363 -365 367 369  0
-385 31 0
-361 -386 0
362 -386 0
364 -386 0
366 -386 0
-94 -386 0
386 361 -362 -364 -366 94  0
-386 31 0
-361 -387 0
-363 -387 0
364 -387 0
366 -387 0
-94 -387 0
387 361 363 -364 -366 94  0
-387 31 0
-361 -388 0
362 -388 0
365 -388 0
366 -388 0
-94 -388 0
388 361 -362 -365 -366 94  0
-388 31 0
-361 -389 0
-363 -389 0
365 -389 0
366 -389 0
-94 -389 0
389 361 363 -365 -366 94  0
-389 31 0
-361 -390 0
362 -390 0
364 -390 0
-367 -390 0
-368 -390 0
94 -390 0
390 361 -362 -364 367 368 -94  0
-390 31 0
-361 -391 0
-363 -391 0
364 -391 0
-367 -391 0
-368 -391 0
94 -391 0
391 361 363 -364 367 368 -94  0
-391 31 0
-361 -392 0
362 -392 0
365 -392 0
-367 -392 0
-368 -392 0
94 -392 0
392 361 -362 -365 367 368 -94  0
-392 31 0
-361 -393 0
-363 -393 0
365 -393 0
-367 -393 0
-368 -393 0
94 -393 0
393 361 363 -365 367 368 -94  0
-393 31 0
-361 -394 0
362 -394 0
364 -394 0
-368 -394 0
-369 -394 0
94 -394 0
394 361 -362 -364 368 369 -94  0
-394 31 0
-361 -395 0
-363 -395 0
364 -395 0
-368 -395 0
-369 -395 0
94 -395 0
395 361 363 -364 368 369 -94  0
-395 31 0
-361 -396 0
362 -396 0
365 -396 0
-368 -396 0
-369 -396 0
94 -396 0
396 361 -362 -365 368 369 -94  0
-396 31 0
-361 -397 0
-363 -397 0
365 -397 0
-368 -397 0
-369 -397 0
94 -397 0
397 361 363 -365 368 369 -94  0
-397 31 0
-31 370 371 372 373 374 375 376 377 378 379 380 381 382 383 384 385 386 387 388 389 390 391 392 393 394 395 396 397  0
398 -399 0
363 -399 0
399 -398 -363  0
-399 34 0
363 -400 0
-361 -400 0
-362 -400 0
-367 -400 0
-369 -400 0
400 -363 361 362 367 369  0
-400 34 0
-34 399 400  0
-94 -412 0
402 -412 0
412 94 -402  0
-412 37 0
-94 -413 0
369 -413 0
-409 -413 0
-410 -413 0
-411 -413 0
413 94 -369 409 410 411  0
-413 37 0
361 -414 0
-94 -414 0
-369 -414 0
-406 -414 0
-407 -414 0
-408 -414 0
414 -361 94 369 406 407 408  0
-414 37 0
361 -415 0
402 -415 0
-403 -415 0
-404 -415 0
-405 -415 0
368 -415 0
415 -361 -402 403 404 405 -368  0
-415 37 0
-401 -416 0
402 -416 0
-403 -416 0
-404 -416 0
-405 -416 0
368 -416 0
416 401 -402 403 404 405 -368  0
-416 37 0
361 -417 0
402 -417 0
-406 -417 0
-407 -417 0
-408 -417 0
-368 -417 0
417 -361 -402 406 407 408 368  0
-417 37 0
-401 -418 0
402 -418 0
-406 -418 0
-407 -418 0
-408 -418 0
-368 -418 0
418 401 -402 406 407 408 368  0
-418 37 0
361 -419 0
-369 -419 0
-406 -419 0
-407 -419 0
-408 -419 0
-368 -419 0
419 -361 369 406 407 408 368  0
-419 37 0
361 -420 0
-369 -420 0
-403 -420 0
-404 -420 0
-405 -420 0
-406 -420 0
-407 -420 0
-408 -420 0
368 -420 0
420 -361 369 403 404 405 406 407 408 -368  0
-420 37 0
361 -421 0
369 -421 0
-403 -421 0
-404 -421 0
-405 -421 0
368 -421 0
-409 -421 0
-410 -421 0
-411 -421 0
421 -361 -369 403 404 405 -368 409 410 411  0
-421 37 0
-401 -422 0
369 -422 0
-403 -422 0
-404 -422 0
-405 -422 0
368 -422 0
-409 -422 0
-410 -422 0
-411 -422 0
422 401 -369 403 404 405 -368 409 410 411  0
-422 37 0
361 -423 0
369 -423 0
-406 -423 0
-407 -423 0
-408 -423 0
-368 -423 0
-409 -423 0
-410 -423 0
-411 -423 0
423 -361 -369 406 407 408 368 409 410 411  0
-423 37 0
-401 -424 0
369 -424 0
-406 -424 0
-407 -424 0
-408 -424 0
-368 -424 0
-409 -424 0
-410 -424 0
-411 -424 0
424 401 -369 406 407 408 368 409 410 411  0
-424 37 0
-37 412 413 414 415 416 417 418 419 420 421 422 423 424  0
-361 -427 0
425 -427 0
427 361 -425  0
-427 40 0
-361 -428 0
13 -428 0
426 -428 0
428 361 -13 -426  0
-428 40 0
-40 427 428  0
429 -436 0
-10 -436 0
7 -436 0
436 -429 10 -7  0
-436 43 0
429 -437 0
10 -437 0
-7 -437 0
437 -429 -10 7  0
-437 43 0
429 -438 0
432 -438 0
433 -438 0
438 -429 -432 -433  0
-438 43 0
-429 -439 0
-434 -439 0
435 -439 0
439 429 434 -435  0
-439 43 0
-429 -440 0
434 -440 0
-435 -440 0
440 429 -434 435  0
-440 43 0
429 -441 0
430 -441 0
-10 -441 0
340 -441 0
441 -429 -430 10 -340  0
-441 43 0
429 -442 0
431 -442 0
-10 -442 0
-340 -442 0
442 -429 -431 10 340  0
-442 43 0
-43 436 437 438 439 440 441 442  0
429 -446 0
-10 -446 0
7 -446 0
446 -429 10 -7  0
-446 46 0
429 -447 0
10 -447 0
-7 -447 0
447 -429 -10 7  0
-447 46 0
-429 -448 0
434 -448 0
445 -448 0
448 429 -434 -445  0
-448 46 0
-429 -449 0
445 -449 0
-435 -449 0
449 429 -445 435  0
-449 46 0
429 -450 0
432 -450 0
443 -450 0
444 -450 0
450 -429 -432 -443 -444  0
-450 46 0
-429 -451 0
-434 -451 0
-445 -451 0
435 -451 0
451 429 434 445 -435  0
-451 46 0
-46 446 447 448 449 450 451  0
452 -455 0
-453 -455 0
-454 -455 0
455 -452 453 454  0
-455 49 0
-453 -456 0
364 -456 0
-454 -456 0
456 453 -364 454  0
-456 49 0
452 -457 0
-454 -457 0
434 -457 0
457 -452 454 -434  0
-457 49 0
364 -458 0
-454 -458 0
434 -458 0
458 -364 454 -434  0
-458 49 0
452 -459 0
-454 -459 0
445 -459 0
459 -452 454 -445  0
-459 49 0
364 -460 0
-454 -460 0
445 -460 0
460 -364 454 -445  0
-460 49 0
-49 455 456 457 458 459 460  0
461 -463 0
429 -463 0
463 -461 -429  0
-463 52 0
-429 -464 0
-462 -464 0
453 -464 0
464 429 462 -453  0
-464 52 0
-429 -465 0
462 -465 0
-453 -465 0
465 429 -462 453  0
-465 52 0
-52 463 464 465  0
466 -468 0
429 -468 0
468 -466 -429  0
-468 55 0
-429 -469 0
-462 -469 0
467 -469 0
469 429 462 -467  0
-469 55 0
-429 -470 0
467 -470 0
-453 -470 0
470 429 -467 453  0
-470 55 0
-429 -471 0
462 -471 0
-467 -471 0
453 -471 0
471 429 -462 467 -453  0
-471 55 0
-55 468 469 470 471  0
361 -474 0
474 -361  0
-474 58 0
472 -475 0
-473 -475 0
475 -472 473  0
-475 58 0
-58 474 475  0
472 -477 0
476 -477 0
477 -472 -476  0
-477 61 0
-61 477  0
-349 -478 0
350 -478 0
478 349 -350  0
-478 67 0
349 -479 0
-350 -479 0
479 -349 350  0
-479 67 0
-67 478 479  0
-349 -480 0
351 -480 0
480 349 -351  0
-480 70 0
-350 -481 0
351 -481 0
481 350 -351  0
-481 70 0
349 -482 0
350 -482 0
-351 -482 0
482 -349 -350 351  0
-482 70 0
-70 480 481 482  0
94 -484 0
-483 -484 0
484 -94 483  0
-484 73 0
-349 -485 0
-350 -485 0
-351 -485 0
94 -485 0
485 349 350 351 -94  0
-485 73 0
-73 484 485  0
94 -486 0
-483 -486 0
486 -94 483  0
-486 76 0
-350 -487 0
-351 -487 0
94 -487 0
487 350 351 -94  0
-487 76 0
-76 486 487  0
94 -488 0
-483 -488 0
488 -94 483  0
-488 79 0
-349 -489 0
-351 -489 0
94 -489 0
489 349 351 -94  0
-489 79 0
-79 488 489  0
-351 -490 0
94 -490 0
490 351 -94  0
-490 82 0
94 -491 0
-483 -491 0
491 -94 483  0
-491 82 0
-82 490 491  0
94 -492 0
-483 -492 0
492 -94 483  0
-492 85 0
-349 -493 0
-350 -493 0
94 -493 0
493 349 350 -94  0
-493 85 0
-85 492 493  0
-350 -494 0
94 -494 0
494 350 -94  0
-494 88 0
94 -495 0
-483 -495 0
495 -94 483  0
-495 88 0
-88 494 495  0
-349 -496 0
94 -496 0
496 349 -94  0
-496 91 0
94 -497 0
-483 -497 0
497 -94 483  0
-497 91 0
-91 496 497  0
348 -498 0
349 -498 0
350 -498 0
351 -498 0
498 -348 -349 -350 -351  0
-498 97 0
-97 498  0
-499 -503 0
502 -503 0
503 499 -502  0
-503 100 0
-500 -504 0
502 -504 0
504 500 -502  0
-504 100 0
-501 -505 0
502 -505 0
505 501 -502  0
-505 100 0
-499 -506 0
-407 -506 0
408 -506 0
506 499 407 -408  0
-506 100 0
-500 -507 0
-407 -507 0
408 -507 0
507 500 407 -408  0
-507 100 0
-501 -508 0
-407 -508 0
408 -508 0
508 501 407 -408  0
-508 100 0
-100 503 504 505 506 507 508  0
361 -509 0
509 -361  0
-509 103 0
-367 -510 0
368 -510 0
369 -510 0
-94 -510 0
510 367 -368 -369 94  0
-510 103 0
-103 509 510  0
-368 -511 0
369 -511 0
-94 -511 0
511 368 -369 94  0
-511 106 0
369 -512 0
-94 -512 0
367 -512 0
512 -369 94 -367  0
-512 106 0
-106 511 512  0
-369 -513 0
-94 -513 0
513 369 94  0
-513 109 0
-369 -514 0
367 -514 0
514 369 -367  0
-514 109 0
94 -515 0
367 -515 0
515 -94 -367  0
-515 109 0
-369 -516 0
368 -516 0
516 369 -368  0
-516 109 0
94 -517 0
368 -517 0
517 -94 -368  0
-517 109 0
-109 513 514 515 516 517  0
518 -523 0
519 -523 0
523 -518 -519  0
-523 112 0
519 -524 0
520 -524 0
524 -519 -520  0
-524 112 0
518 -525 0
-521 -525 0
525 -518 521  0
-525 112 0
520 -526 0
-521 -526 0
526 -520 521  0
-526 112 0
518 -527 0
522 -527 0
527 -518 -522  0
-527 112 0
520 -528 0
522 -528 0
528 -520 -522  0
-528 112 0
-112 523 524 525 526 527 528  0
-529 -531 0
-519 -531 0
530 -531 0
531 529 519 -530  0
-531 115 0
-115 531  0
532 -533 0
533 -532  0
-533 118 0
-19 -534 0
520 -534 0
534 19 -520  0
-534 118 0
-118 533 534  0
94 -537 0
537 -94  0
-537 121 0
535 -538 0
-520 -538 0
538 -535 520  0
-538 121 0
535 -539 0
338 -539 0
539 -535 -338  0
-539 121 0
535 -540 0
-536 -540 0
540 -535 536  0
-540 121 0
-121 537 538 539 540  0
366 -542 0
542 -366  0
-542 124 0
541 -543 0
-340 -543 0
543 -541 340  0
-543 124 0
541 -544 0
-520 -544 0
544 -541 520  0
-544 124 0
94 -545 0
401 -545 0
545 -94 -401  0
-545 124 0
541 -546 0
339 -546 0
-365 -546 0
546 -541 -339 365  0
-546 124 0
-124 542 543 544 545 546  0
547 -551 0
-529 -551 0
551 -547 529  0
-551 127 0
-529 -552 0
-352 -552 0
548 -552 0
-329 -552 0
64 -552 0
552 529 352 -548 329 -64  0
-552 127 0
-529 -553 0
410 -553 0
-411 -553 0
94 -553 0
151 -553 0
553 529 -410 411 -94 -151  0
-553 127 0
-529 -554 0
-409 -554 0
410 -554 0
-411 -554 0
94 -554 0
549 -554 0
554 529 409 -410 411 -94 -549  0
-554 127 0
-529 -555 0
-409 -555 0
410 -555 0
-411 -555 0
94 -555 0
-550 -555 0
555 529 409 -410 411 -94 550  0
-555 127 0
-127 551 552 553 554 555  0
556 -557 0
530 -557 0
557 -556 -530  0
-557 130 0
-130 557  0
560 -561 0
561 -560  0
-561 133 0
558 -562 0
-94 -562 0
562 -558 94  0
-562 133 0
558 -563 0
-559 -563 0
563 -558 559  0
-563 133 0
-133 561 562 563  0
564 -567 0
567 -564  0
-567 136 0
337 -568 0
565 -568 0
566 -568 0
568 -337 -565 -566  0
-568 136 0
-136 567 568  0
569 -570 0
570 -569  0
-570 139 0
558 -571 0
571 -558  0
-571 139 0
306 -572 0
572 -306  0
-572 139 0
522 -573 0
573 -522  0
-573 139 0
-139 570 571 572 573  0
574 -575 0
322 -575 0
575 -574 -322  0
-575 142 0
574 -576 0
-323 -576 0
576 -574 323  0
-576 142 0
320 -577 0
-322 -577 0
323 -577 0
577 -320 322 -323  0
-577 142 0
-142 575 576 577  0
578 -581 0
64 -581 0
581 -578 -64  0
-581 145 0
579 -582 0
64 -582 0
582 -579 -64  0
-582 145 0
64 -583 0
580 -583 0
583 -64 -580  0
-583 145 0
-145 581 582 583  0
352 -584 0
548 -584 0
-329 -584 0
64 -584 0
584 -352 -548 329 -64  0
-584 148 0
-148 584  0
-151 -585 0
580 -585 0
585 151 -580  0
-585 154 0
151 -586 0
-580 -586 0
586 -151 580  0
-586 154 0
-154 585 586  0
578 -587 0
64 -587 0
587 -578 -64  0
-587 157 0
64 -588 0
151 -588 0
588 -64 -151  0
-588 157 0
64 -589 0
580 -589 0
589 -64 -580  0
-589 157 0
-157 587 588 589  0
590 -592 0
-591 -592 0
592 -590 591  0
-592 160 0
591 -593 0
-327 -593 0
593 -591 327  0
-593 160 0
-160 592 593  0
594 -596 0
-591 -596 0
596 -594 591  0
-596 163 0
591 -597 0
-327 -597 0
595 -597 0
597 -591 327 -595  0
-597 163 0
591 -598 0
327 -598 0
-595 -598 0
598 -591 -327 595  0
-598 163 0
-163 596 597 598  0
566 -599 0
530 -599 0
599 -566 -530  0
-599 166 0
-166 599  0
529 -601 0
601 -529  0
-601 169 0
578 -602 0
-94 -602 0
-600 -602 0
602 -578 94 600  0
-602 169 0
578 -603 0
-151 -603 0
-600 -603 0
603 -578 151 600  0
-603 169 0
578 -604 0
-580 -604 0
-600 -604 0
604 -578 580 600  0
-604 169 0
-169 601 602 603 604  0
-547 -605 0
-558 -605 0
605 547 558  0
-605 172 0
-172 605  0
-547 -606 0
-558 -606 0
606 547 558  0
-606 175 0
-558 -607 0
151 -607 0
607 558 -151  0
-607 175 0
-558 -608 0
64 -608 0
549 -608 0
608 558 -64 -549  0
-608 175 0
-558 -609 0
64 -609 0
-550 -609 0
609 558 -64 550  0
-609 175 0
-175 606 607 608 609  0
529 -612 0
612 -529  0
-612 178 0
611 -613 0
613 -611  0
-613 178 0
549 -614 0
610 -614 0
614 -549 -610  0
-614 178 0
-178 612 613 614  0
611 -615 0
615 -611  0
-615 181 0
550 -616 0
610 -616 0
616 -550 -610  0
-616 181 0
549 -617 0
-550 -617 0
-610 -617 0
617 -549 550 610  0
-617 181 0
-181 615 616 617  0
618 -622 0
619 -622 0
-620 -622 0
622 -618 -619 620  0
-622 184 0
-336 -623 0
619 -623 0
340 -623 0
623 336 -619 -340  0
-623 184 0
-338 -624 0
619 -624 0
-340 -624 0
624 338 -619 340  0
-624 184 0
618 -625 0
-619 -625 0
-621 -625 0
625 -618 619 621  0
-625 184 0
618 -626 0
-620 -626 0
-621 -626 0
626 -618 620 621  0
-626 184 0
-184 622 623 624 625 626  0
619 -628 0
620 -628 0
628 -619 -620  0
-628 187 0
-336 -629 0
430 -629 0
619 -629 0
340 -629 0
629 336 -430 -619 -340  0
-629 187 0
-338 -630 0
431 -630 0
619 -630 0
-340 -630 0
630 338 -431 -619 340  0
-630 187 0
618 -631 0
627 -631 0
-619 -631 0
-621 -631 0
631 -618 -627 619 621  0
-631 187 0
627 -632 0
-619 -632 0
-600 -632 0
-621 -632 0
632 -627 619 600 621  0
-632 187 0
336 -633 0
618 -633 0
627 -633 0
619 -633 0
340 -633 0
633 -336 -618 -627 -619 -340  0
-633 187 0
336 -634 0
627 -634 0
619 -634 0
-600 -634 0
340 -634 0
634 -336 -627 -619 600 -340  0
-634 187 0
338 -635 0
618 -635 0
627 -635 0
619 -635 0
-340 -635 0
635 -338 -618 -627 -619 340  0
-635 187 0
338 -636 0
627 -636 0
619 -636 0
-600 -636 0
-340 -636 0
636 -338 -627 -619 600 340  0
-636 187 0
336 -637 0
618 -637 0
627 -637 0
340 -637 0
-621 -637 0
637 -336 -618 -627 -340 621  0
-637 187 0
336 -638 0
627 -638 0
-600 -638 0
340 -638 0
-621 -638 0
638 -336 -627 600 -340 621  0
-638 187 0
338 -639 0
618 -639 0
627 -639 0
-340 -639 0
-621 -639 0
639 -338 -618 -627 340 621  0
-639 187 0
338 -640 0
627 -640 0
-600 -640 0
-340 -640 0
-621 -640 0
640 -338 -627 600 340 621  0
-640 187 0
-187 628 629 630 631 632 633 634 635 636 637 638 639 640  0
618 -643 0
621 -643 0
643 -618 -621  0
-643 190 0
641 -644 0
-642 -644 0
-621 -644 0
644 -641 642 621  0
-644 190 0
-190 643 644  0
627 -646 0
621 -646 0
646 -627 -621  0
-646 193 0
641 -647 0
645 -647 0
-642 -647 0
-621 -647 0
647 -641 -645 642 621  0
-647 193 0
645 -648 0
-642 -648 0
-621 -648 0
-600 -648 0
648 -645 642 621 600  0
-648 193 0
-193 646 647 648  0
645 -650 0
642 -650 0
650 -645 -642  0
-650 196 0
649 -651 0
-621 -651 0
-402 -651 0
651 -649 621 402  0
-651 196 0
-196 650 651  0
532 -652 0
652 -532  0
-652 199 0
-558 -653 0
94 -653 0
559 -653 0
653 558 -94 -559  0
-653 199 0
-199 652 653  0
337 -655 0
565 -655 0
-654 -655 0
655 -337 -565 654  0
-655 202 0
-202 655  0
-208 -656 0
-222 -656 0
656 208 222  0
-656 205 0
-205 656  0
-214 -657 0
-314 -657 0
657 214 314  0
-657 211 0
-211 657  0
-208 -658 0
-222 -658 0
658 208 222  0
-658 217 0
-217 658  0
579 -662 0
-659 -662 0
-408 -662 0
662 -579 659 408  0
-662 225 0
579 -663 0
-659 -663 0
-426 -663 0
663 -579 659 426  0
-663 225 0
-659 -664 0
-408 -664 0
660 -664 0
-661 -664 0
664 659 408 -660 661  0
-664 225 0
-659 -665 0
-426 -665 0
660 -665 0
-661 -665 0
665 659 426 -660 661  0
-665 225 0
-225 662 663 664 665  0
-411 -667 0
666 -667 0
-659 -667 0
667 411 -666 659  0
-667 228 0
666 -668 0
-94 -668 0
-659 -668 0
668 -666 94 659  0
-668 228 0
666 -669 0
151 -669 0
-659 -669 0
669 -666 -151 659  0
-669 228 0
666 -670 0
580 -670 0
-659 -670 0
670 -666 -580 659  0
-670 228 0
666 -671 0
579 -671 0
-659 -671 0
-408 -671 0
671 -666 -579 659 408  0
-671 228 0
666 -672 0
579 -672 0
-659 -672 0
-426 -672 0
672 -666 -579 659 426  0
-672 228 0
-411 -673 0
-659 -673 0
660 -673 0
-661 -673 0
673 411 659 -660 661  0
-673 228 0
-94 -674 0
-659 -674 0
660 -674 0
-661 -674 0
674 94 659 -660 661  0
-674 228 0
151 -675 0
-659 -675 0
660 -675 0
-661 -675 0
675 -151 659 -660 661  0
-675 228 0
580 -676 0
-659 -676 0
660 -676 0
-661 -676 0
676 -580 659 -660 661  0
-676 228 0
579 -677 0
-659 -677 0
-408 -677 0
660 -677 0
-661 -677 0
677 -579 659 408 -660 661  0
-677 228 0
579 -678 0
-659 -678 0
-426 -678 0
660 -678 0
-661 -678 0
678 -579 659 426 -660 661  0
-678 228 0
-228 667 668 669 670 671 672 673 674 675 676 677 678  0
679 -682 0
661 -682 0
680 -682 0
681 -682 0
682 -679 -661 -680 -681  0
-682 231 0
679 -683 0
661 -683 0
680 -683 0
566 -683 0
683 -679 -661 -680 -566  0
-683 231 0
-231 682 683  0
579 -684 0
64 -684 0
684 -579 -64  0
-684 234 0
64 -685 0
151 -685 0
685 -64 -151  0
-685 234 0
64 -686 0
580 -686 0
686 -64 -580  0
-686 234 0
-234 684 685 686  0
687 -689 0
-688 -689 0
689 -687 688  0
-689 237 0
688 -690 0
-328 -690 0
690 -688 328  0
-690 237 0
-237 689 690  0
691 -693 0
-688 -693 0
693 -691 688  0
-693 240 0
688 -694 0
-328 -694 0
692 -694 0
694 -688 328 -692  0
-694 240 0
688 -695 0
328 -695 0
-692 -695 0
695 -688 -328 692  0
-695 240 0
-240 693 694 695  0
661 -696 0
679 -696 0
696 -661 -679  0
-696 243 0
-243 696  0
-579 -697 0
-306 -697 0
697 579 306  0
-697 246 0
-246 697  0
666 -698 0
698 -666  0
-698 249 0
354 -699 0
699 -354  0
-699 249 0
-249 698 699  0
700 -701 0
701 -700  0
-701 252 0
681 -702 0
-566 -702 0
702 -681 566  0
-702 252 0
339 -703 0
429 -703 0
703 -339 -429  0
-703 252 0
-252 701 702 703  0
704 -706 0
-705 -706 0
-700 -706 0
706 -704 705 700  0
-706 255 0
-255 706  0
-705 -707 0
700 -707 0
707 705 -700  0
-707 258 0
-258 707  0
705 -708 0
708 -705  0
-708 261 0
-704 -709 0
-700 -709 0
709 704 700  0
-709 261 0
-261 708 709  0
705 -712 0
-306 -712 0
-332 -712 0
711 -712 0
712 -705 306 332 -711  0
-712 264 0
530 -713 0
-306 -713 0
-365 -713 0
711 -713 0
713 -530 306 365 -711  0
-713 264 0
679 -714 0
-306 -714 0
-365 -714 0
711 -714 0
714 -679 306 365 -711  0
-714 264 0
705 -715 0
-306 -715 0
-365 -715 0
711 -715 0
715 -705 306 365 -711  0
-715 264 0
-306 -716 0
700 -716 0
-365 -716 0
711 -716 0
716 306 -700 365 -711  0
-716 264 0
-306 -717 0
700 -717 0
-332 -717 0
-432 -717 0
711 -717 0
717 306 -700 332 432 -711  0
-717 264 0
-306 -718 0
700 -718 0
-332 -718 0
600 -718 0
711 -718 0
718 306 -700 332 -600 -711  0
-718 264 0
-306 -719 0
700 -719 0
-332 -719 0
-433 -719 0
711 -719 0
719 306 -700 332 433 -711  0
-719 264 0
530 -720 0
-306 -720 0
-700 -720 0
-339 -720 0
-332 -720 0
711 -720 0
720 -530 306 700 339 332 -711  0
-720 264 0
679 -721 0
-306 -721 0
-700 -721 0
-339 -721 0
-332 -721 0
711 -721 0
721 -679 306 700 339 332 -711  0
-721 264 0
-705 -722 0
-306 -722 0
700 -722 0
-432 -722 0
661 -722 0
711 -722 0
722 705 306 -700 432 -661 -711  0
-722 264 0
-705 -723 0
-306 -723 0
700 -723 0
661 -723 0
600 -723 0
711 -723 0
723 705 306 -700 -661 -600 -711  0
-723 264 0
-705 -724 0
-306 -724 0
700 -724 0
661 -724 0
-433 -724 0
711 -724 0
724 705 306 -700 -661 433 -711  0
-724 264 0
530 -725 0
-705 -725 0
-306 -725 0
-700 -725 0
-339 -725 0
661 -725 0
711 -725 0
725 -530 705 306 700 339 -661 -711  0
-725 264 0
679 -726 0
-705 -726 0
-306 -726 0
-700 -726 0
-339 -726 0
661 -726 0
711 -726 0
726 -679 705 306 700 339 -661 -711  0
-726 264 0
530 -727 0
-306 -727 0
-700 -727 0
-332 -727 0
-710 -727 0
711 -727 0
681 -727 0
727 -530 306 700 332 710 -711 -681  0
-727 264 0
679 -728 0
-306 -728 0
-700 -728 0
-332 -728 0
-710 -728 0
711 -728 0
681 -728 0
728 -679 306 700 332 710 -711 -681  0
-728 264 0
530 -729 0
-306 -729 0
-700 -729 0
-332 -729 0
-710 -729 0
711 -729 0
566 -729 0
729 -530 306 700 332 710 -711 -566  0
-729 264 0
679 -730 0
-306 -730 0
-700 -730 0
-332 -730 0
-710 -730 0
711 -730 0
566 -730 0
730 -679 306 700 332 710 -711 -566  0
-730 264 0
530 -731 0
-705 -731 0
-306 -731 0
-700 -731 0
661 -731 0
-710 -731 0
711 -731 0
681 -731 0
731 -530 705 306 700 -661 710 -711 -681  0
-731 264 0
679 -732 0
-705 -732 0
-306 -732 0
-700 -732 0
661 -732 0
-710 -732 0
711 -732 0
681 -732 0
732 -679 705 306 700 -661 710 -711 -681  0
-732 264 0
530 -733 0
-705 -733 0
-306 -733 0
-700 -733 0
661 -733 0
-710 -733 0
711 -733 0
566 -733 0
733 -530 705 306 700 -661 710 -711 -566  0
-733 264 0
679 -734 0
-705 -734 0
-306 -734 0
-700 -734 0
661 -734 0
-710 -734 0
711 -734 0
566 -734 0
734 -679 705 306 700 -661 710 -711 -566  0
-734 264 0
-264 712 713 714 715 716 717 718 719 720 721 722 723 724 725 726 727 728 729 730 731 732 733 734  0
-408 -737 0
306 -737 0
737 408 -306  0
-737 267 0
-408 -738 0
735 -738 0
738 408 -735  0
-738 267 0
-408 -739 0
736 -739 0
739 408 -736  0
-739 267 0
-267 737 738 739  0
-407 -740 0
408 -740 0
306 -740 0
740 407 -408 -306  0
-740 270 0
-407 -741 0
408 -741 0
735 -741 0
741 407 -408 -735  0
-741 270 0
-407 -742 0
408 -742 0
736 -742 0
742 407 -408 -736  0
-742 270 0
-270 740 741 742  0
744 -748 0
745 -748 0
748 -744 -745  0
-748 288 0
743 -749 0
746 -749 0
749 -743 -746  0
-749 288 0
743 -750 0
-747 -750 0
750 -743 747  0
-750 288 0
-288 748 749 750  0
751 -752 0
747 -752 0
752 -751 -747  0
-752 291 0
-291 752  0
754 -756 0
755 -756 0
756 -754 -755  0
-756 294 0
753 -757 0
-755 -757 0
757 -753 755  0
-757 294 0
-294 756 757  0
735 -759 0
759 -735  0
-759 297 0
758 -760 0
760 -758  0
-760 297 0
-297 759 760  0
-761 -764 0
762 -764 0
355 -764 0
-763 -764 0
764 761 -762 -355 763  0
-764 300 0
-300 764  0
-711 -765 0
765 711  0
-765 303 0
761 -766 0
-355 -766 0
766 -761 355  0
-766 303 0
-303 765 766  0
761 -767 0
-762 -767 0
767 -761 762  0
-767 306 0
762 -768 0
-355 -768 0
768 -762 355  0
-768 306 0
761 -769 0
-763 -769 0
769 -761 763  0
-769 306 0
-306 767 768 769  0
-214 -770 0
-314 -770 0
770 214 314  0
-770 309 0
-309 770  0
-762 -771 0
-761 -771 0
771 762 761  0
-771 317 0
306 -772 0
-761 -772 0
772 -306 761  0
-772 317 0
-317 771 772  0
364 -773 0
-365 -773 0
773 -364 365  0
-773 429 0
-429 773  0
361 -774 0
407 -774 0
774 -361 -407  0
-774 453 0
361 -775 0
-408 -775 0
775 -361 408  0
-775 453 0
361 -776 0
-348 -776 0
776 -361 348  0
-776 453 0
361 -777 0
499 -777 0
500 -777 0
501 -777 0
777 -361 -499 -500 -501  0
-777 453 0
-453 774 775 776 777  0
778 -781 0
-780 -781 0
781 -778 780  0
-781 443 0
549 -782 0
-550 -782 0
779 -782 0
-780 -782 0
782 -549 550 -779 780  0
-782 443 0
-443 781 782  0
783 -784 0
-780 -784 0
784 -783 780  0
-784 444 0
-549 -785 0
550 -785 0
779 -785 0
-780 -785 0
785 549 -550 -779 780  0
-785 444 0
-444 784 785  0
453 -786 0
434 -786 0
786 -453 -434  0
-786 435 0
453 -787 0
445 -787 0
787 -453 -445  0
-787 435 0
-435 786 787  0
611 -788 0
621 -788 0
788 -611 -621  0
-788 619 0
611 -789 0
-536 -789 0
789 -611 536  0
-789 619 0
549 -790 0
550 -790 0
621 -790 0
790 -549 -550 -621  0
-790 619 0
549 -791 0
550 -791 0
-536 -791 0
791 -549 -550 536  0
-791 619 0
779 -792 0
-600 -792 0
620 -792 0
621 -792 0
792 -779 600 -620 -621  0
-792 619 0
779 -793 0
-600 -793 0
620 -793 0
-536 -793 0
793 -779 600 -620 536  0
-793 619 0
-619 788 789 790 791 792 793  0
-549 -794 0
550 -794 0
794 549 -550  0
-794 620 0
549 -795 0
-550 -795 0
795 -549 550  0
-795 620 0
-620 794 795  0
618 -796 0
-641 -796 0
-645 -796 0
-649 -796 0
536 -796 0
796 -618 641 645 649 -536  0
-796 621 0
-627 -797 0
-641 -797 0
-645 -797 0
-649 -797 0
536 -797 0
797 627 641 645 649 -536  0
-797 621 0
-641 -798 0
-645 -798 0
-649 -798 0
-600 -798 0
536 -798 0
798 641 645 649 600 -536  0
-798 621 0
618 -799 0
649 -799 0
536 -799 0
402 -799 0
94 -799 0
799 -618 -649 -536 -402 -94  0
-799 621 0
-627 -800 0
649 -800 0
536 -800 0
402 -800 0
94 -800 0
800 627 -649 -536 -402 -94  0
-800 621 0
649 -801 0
-600 -801 0
536 -801 0
402 -801 0
94 -801 0
801 -649 600 -536 -402 -94  0
-801 621 0
618 -802 0
641 -802 0
-645 -802 0
536 -802 0
402 -802 0
94 -802 0
802 -618 -641 645 -536 -402 -94  0
-802 621 0
-627 -803 0
641 -803 0
-645 -803 0
536 -803 0
402 -803 0
94 -803 0
803 627 -641 645 -536 -402 -94  0
-803 621 0
641 -804 0
-645 -804 0
-600 -804 0
536 -804 0
402 -804 0
94 -804 0
804 -641 645 600 -536 -402 -94  0
-804 621 0
-621 796 797 798 799 800 801 802 803 804  0
443 -805 0
805 -443  0
-805 433 0
444 -806 0
806 -444  0
-806 433 0
-433 805 806  0
407 -807 0
426 -807 0
807 -407 -426  0
-807 600 0
-600 807  0
808 -809 0
-780 -809 0
-600 -809 0
433 -809 0
809 -808 780 600 -433  0
-809 700 0
-700 809  0
-94 -811 0
564 -811 0
811 94 -564  0
-811 519 0
-559 -812 0
564 -812 0
812 559 -564  0
-812 519 0
-810 -813 0
564 -813 0
813 810 -564  0
-813 519 0
-610 -814 0
620 -814 0
814 610 -620  0
-814 519 0
520 -815 0
560 -815 0
815 -520 -560  0
-815 519 0
-336 -816 0
306 -816 0
340 -816 0
816 336 -306 -340  0
-816 519 0
-336 -817 0
680 -817 0
340 -817 0
817 336 -680 -340  0
-817 519 0
-338 -818 0
306 -818 0
-340 -818 0
818 338 -306 340  0
-818 519 0
-338 -819 0
680 -819 0
-340 -819 0
819 338 -680 340  0
-819 519 0
-566 -820 0
520 -820 0
565 -820 0
-339 -820 0
820 566 -520 -565 339  0
-820 519 0
-566 -821 0
520 -821 0
565 -821 0
365 -821 0
821 566 -520 -565 -365  0
-821 519 0
-338 -822 0
-566 -822 0
520 -822 0
565 -822 0
536 -822 0
822 338 566 -520 -565 -536  0
-822 519 0
-519 811 812 813 814 815 816 817 818 819 820 821 822  0
823 -824 0
704 -824 0
824 -823 -704  0
-824 520 0
-520 824  0
535 -825 0
541 -825 0
547 -825 0
-564 -825 0
825 -535 -541 -547 564  0
-825 521 0
-521 825  0
-338 -826 0
565 -826 0
556 -826 0
826 338 -565 -556  0
-826 522 0
-522 826  0
761 -827 0
-762 -827 0
827 -761 762  0
-827 364 0
761 -828 0
355 -828 0
-763 -828 0
828 -761 -355 763  0
-828 364 0
332 -829 0
-661 -829 0
-306 -829 0
-680 -829 0
829 -332 661 306 680  0
-829 364 0
339 -830 0
710 -830 0
-306 -830 0
-680 -830 0
830 -339 -710 306 680  0
-830 364 0
332 -831 0
705 -831 0
-306 -831 0
-680 -831 0
831 -332 -705 306 680  0
-831 364 0
339 -832 0
-306 -832 0
-680 -832 0
-681 -832 0
-566 -832 0
832 -339 306 680 681 566  0
-832 364 0
432 -833 0
-306 -833 0
-600 -833 0
433 -833 0
700 -833 0
-680 -833 0
833 -432 306 600 -433 -700 680  0
-833 364 0
-364 827 828 829 830 831 832 833  0
361 -834 0
425 -834 0
834 -361 -425  0
-834 454 0
-13 -835 0
426 -835 0
835 13 -426  0
-835 454 0
-454 834 835  0
-337 -836 0
338 -836 0
565 -836 0
-566 -836 0
836 337 -338 -565 566  0
-836 529 0
-529 836  0
518 -837 0
521 -837 0
837 -518 -521  0
-837 530 0
520 -838 0
521 -838 0
-522 -838 0
838 -520 -521 522  0
-838 530 0
-530 837 838  0
452 -839 0
-454 -839 0
839 -452 454  0
-839 365 0
-365 839  0
556 -840 0
840 -556  0
-840 704 0
19 -841 0
841 -19  0
-841 704 0
22 -842 0
842 -22  0
-842 704 0
-704 840 841 842  0
843 -845 0
407 -845 0
845 -843 -407  0
-845 705 0
843 -846 0
-408 -846 0
846 -843 408  0
-846 705 0
843 -847 0
-844 -847 0
847 -843 844  0
-847 705 0
843 -848 0
306 -848 0
848 -843 -306  0
-848 705 0
-705 845 846 847 848  0
666 -850 0
849 -850 0
850 -666 -849  0
-850 679 0
-679 850  0
340 -851 0
408 -851 0
851 -340 -408  0
-851 710 0
340 -852 0
-844 -852 0
852 -340 844  0
-852 710 0
340 -853 0
306 -853 0
853 -340 -306  0
-853 710 0
-710 851 852 853  0
64 -854 0
548 -854 0
329 -854 0
854 -64 -548 -329  0
-854 355 0
-355 854  0
-855 -861 0
861 855  0
-861 763 0
-858 -862 0
755 -862 0
862 858 -755  0
-862 763 0
-859 -863 0
-755 -863 0
863 859 755  0
-863 763 0
-857 -864 0
860 -864 0
864 857 -860  0
-864 763 0
-856 -865 0
860 -865 0
-336 -865 0
339 -865 0
340 -865 0
865 856 -860 336 -339 -340  0
-865 763 0
-856 -866 0
860 -866 0
-338 -866 0
339 -866 0
-340 -866 0
866 856 -860 338 -339 340  0
-866 763 0
-753 -867 0
755 -867 0
-761 -867 0
762 -867 0
-336 -867 0
339 -867 0
340 -867 0
867 753 -755 761 -762 336 -339 -340  0
-867 763 0
-754 -868 0
-755 -868 0
-761 -868 0
762 -868 0
-336 -868 0
339 -868 0
340 -868 0
868 754 755 761 -762 336 -339 -340  0
-868 763 0
-753 -869 0
755 -869 0
-761 -869 0
762 -869 0
-338 -869 0
339 -869 0
-340 -869 0
869 753 -755 761 -762 338 -339 340  0
-869 763 0
-754 -870 0
-755 -870 0
-761 -870 0
762 -870 0
-338 -870 0
339 -870 0
-340 -870 0
870 754 755 761 -762 338 -339 340  0
-870 763 0
-763 861 862 863 864 865 866 867 868 869 870  0
409 -871 0
-410 -871 0
-411 -871 0
871 -409 410 411  0
-871 559 0
-559 871  0
549 -872 0
550 -872 0
-621 -872 0
536 -872 0
872 -549 -550 621 -536  0
-872 610 0
779 -873 0
-600 -873 0
-621 -873 0
536 -873 0
873 -779 600 621 -536  0
-873 610 0
-610 872 873  0
214 -874 0
222 -874 0
874 -214 -222  0
-874 810 0
-214 -875 0
-314 -875 0
208 -875 0
-222 -875 0
875 214 314 -208 222  0
-875 810 0
-214 -876 0
314 -876 0
-208 -876 0
-222 -876 0
876 214 -314 208 222  0
-876 810 0
-810 874 875 876  0
877 -878 0
810 -878 0
878 -877 -810  0
-878 564 0
877 -879 0
654 -879 0
879 -877 -654  0
-879 564 0
-564 878 879  0
337 -880 0
565 -880 0
-94 -880 0
654 -880 0
880 -337 -565 94 -654  0
-880 560 0
-560 880  0
-618 -881 0
-627 -881 0
881 618 627  0
-881 536 0
-536 881  0
-338 -882 0
565 -882 0
-621 -882 0
536 -882 0
882 338 -565 621 -536  0
-882 611 0
-611 882  0
883 -884 0
844 -884 0
-306 -884 0
884 -883 -844 306  0
-884 780 0
-780 884  0
-367 -885 0
-368 -885 0
369 -885 0
885 367 368 -369  0
-885 401 0
367 -886 0
-368 -886 0
-369 -886 0
886 -367 368 369  0
-886 401 0
-401 885 886  0
402 -887 0
641 -887 0
887 -402 -641  0
-887 642 0
402 -888 0
645 -888 0
888 -402 -645  0
-888 642 0
-642 887 888  0
-889 -890 0
-407 -890 0
408 -890 0
366 -890 0
445 -890 0
367 -890 0
890 889 407 -408 -366 -445 -367  0
-890 426 0
-889 -891 0
407 -891 0
-408 -891 0
366 -891 0
445 -891 0
367 -891 0
891 889 -407 408 -366 -445 -367  0
-891 426 0
-889 -892 0
-407 -892 0
408 -892 0
366 -892 0
445 -892 0
369 -892 0
892 889 407 -408 -366 -445 -369  0
-892 426 0
-889 -893 0
407 -893 0
-408 -893 0
366 -893 0
445 -893 0
369 -893 0
893 889 -407 408 -366 -445 -369  0
-893 426 0
-889 -894 0
-407 -894 0
408 -894 0
94 -894 0
445 -894 0
401 -894 0
367 -894 0
894 889 407 -408 -94 -445 -401 -367  0
-894 426 0
-889 -895 0
407 -895 0
-408 -895 0
94 -895 0
445 -895 0
401 -895 0
367 -895 0
895 889 -407 408 -94 -445 -401 -367  0
-895 426 0
-889 -896 0
-407 -896 0
408 -896 0
94 -896 0
445 -896 0
401 -896 0
369 -896 0
896 889 407 -408 -94 -445 -401 -369  0
-896 426 0
-889 -897 0
407 -897 0
-408 -897 0
94 -897 0
445 -897 0
401 -897 0
369 -897 0
897 889 -407 408 -94 -445 -401 -369  0
-897 426 0
-426 890 891 892 893 894 895 896 897  0
411 -898 0
94 -898 0
151 -898 0
580 -898 0
898 -411 -94 -151 -580  0
-898 659 0
-659 898  0
355 -899 0
763 -899 0
899 -355 -763  0
-899 735 0
-735 899  0
-151 -900 0
354 -900 0
900 151 -354  0
-900 688 0
-580 -901 0
354 -901 0
901 580 -354  0
-901 688 0
411 -902 0
-64 -902 0
151 -902 0
580 -902 0
902 -411 64 -151 -580  0
-902 688 0
-688 900 901 902  0
353 -903 0
903 -353  0
-903 591 0
410 -904 0
-64 -904 0
151 -904 0
580 -904 0
904 -410 64 -151 -580  0
-904 591 0
-591 903 904  0
877 -905 0
-810 -905 0
-654 -905 0
905 -877 810 654  0
-905 532 0
-532 905  0
578 -906 0
548 -906 0
-329 -906 0
64 -906 0
-151 -906 0
906 -578 -548 329 -64 151  0
-906 353 0
578 -907 0
548 -907 0
-329 -907 0
64 -907 0
-580 -907 0
907 -578 -548 329 -64 580  0
-907 353 0
-353 906 907  0
-548 -908 0
329 -908 0
64 -908 0
908 548 -329 -64  0
-908 354 0
-354 908  0
214 -910 0
314 -910 0
208 -910 0
222 -910 0
909 -910 0
910 -214 -314 -208 -222 -909  0
-910 654 0
-214 -911 0
314 -911 0
-208 -911 0
222 -911 0
909 -911 0
911 214 -314 208 -222 -909  0
-911 654 0
214 -912 0
-314 -912 0
208 -912 0
-222 -912 0
909 -912 0
912 -214 314 -208 222 -909  0
-912 654 0
-214 -913 0
-314 -913 0
-208 -913 0
-222 -913 0
909 -913 0
913 214 314 208 222 -909  0
-913 654 0
-654 910 911 912 913  0
348 -914 0
-410 -914 0
411 -914 0
914 -348 410 -411  0
-914 483 0
-483 914  0
